NAME : census.pruned_local_4.0.tour
COMMENT : Length = 0
TYPE : TOUR
DIMENSION : 68
TOUR_SECTION
2
6
5
38
16
50
44
3
57
58
43
45
29
30
8
36
1
26
28
25
24
33
22
34
23
21
37
20
19
9
55
59
60
67
7
12
56
41
42
40
35
31
46
47
49
52
53
51
48
39
13
15
18
17
63
14
10
54
64
66
68
65
62
61
32
11
27
4
-1
EOF
